
50
12705

681 683
90 92
618 618
840 842
834 835
516 516
630 632
369 370
528 529
108 108
681 683
600 601
282 282
378 379
735 737
444 444
960 960
972 972
837 839
90 92
75 76
288 289
360 362
705 705
825 827
561 563
639 640
573 574
33 35
525 527
213 214
417 417
9 9
654 656
909 911
69 69
579 581
24 24
351 352
159 160
861 861
729 729
897 897
216 218
717 719
699 700
510 511
915 917
624 625
282 283
